* ENCODING=ISO-8859-1
NAME          IloCplex
ROWS
 N  obj1    
 L  c1      
 E  c2      
 E  c3      
 E  c4      
 E  c5      
 E  c6      
 E  c7      
 E  c8      
 E  c9      
 E  c10     
 E  c11     
 E  c12     
 E  c13     
 E  c14     
 E  c15     
 E  c16     
 E  c17     
 E  c18     
 E  c19     
 E  c20     
 E  c21     
 L  c22     
 L  c23     
 L  c24     
 L  c25     
 L  c26     
 L  c27     
 L  c28     
 L  c29     
 L  c30     
 L  c31     
 L  c32     
 L  c33     
 L  c34     
 L  c35     
 L  c36     
 L  c37     
 L  c38     
 L  c39     
 L  c40     
 L  c41     
 L  c42     
 L  c43     
 L  c44     
 L  c45     
 L  c46     
 L  c47     
 L  c48     
 L  c49     
 L  c50     
 L  c51     
 L  c52     
 L  c53     
 L  c54     
 L  c55     
 L  c56     
 L  c57     
 L  c58     
 L  c59     
 L  c60     
 L  c61     
 L  c62     
 L  c63     
 L  c64     
 L  c65     
COLUMNS
    y_a_35    c1                              1
    y_a_35    c17                            -1
    y_a_35    c20                             1
    y_a_35    c57                             1
    y_a_36    c1                              1
    y_a_36    c4                             -1
    y_a_36    c20                             1
    y_a_36    c58                             1
    y_a_37    c1                              1
    y_a_37    c18                            -1
    y_a_37    c20                             1
    y_a_37    c59                             1
    y_a_38    c1                              1
    y_a_38    c4                             -1
    y_a_38    c20                             1
    y_a_38    c60                             1
    y_a_0     c2                              1
    y_a_0     c3                             -1
    y_a_0     c22                             1
    y_a_1     c2                              1
    y_a_1     c5                             -1
    y_a_1     c23                             1
    y_a_2     c2                              1
    y_a_2     c10                            -1
    y_a_2     c24                             1
    y_a_3     c3                              1
    y_a_3     c4                             -1
    y_a_3     c25                             1
    y_a_4     c3                              1
    y_a_4     c5                             -1
    y_a_4     c26                             1
    y_a_5     c3                              1
    y_a_5     c7                             -1
    y_a_5     c27                             1
    y_a_6     c3                              1
    y_a_6     c9                             -1
    y_a_6     c28                             1
    y_a_7     c3                              1
    y_a_7     c15                            -1
    y_a_7     c29                             1
    y_a_8     c4                              1
    y_a_8     c5                             -1
    y_a_8     c30                             1
    y_a_9     c4                              1
    y_a_9     c8                             -1
    y_a_9     c31                             1
    y_a_10    c4                              1
    y_a_10    c9                             -1
    y_a_10    c32                             1
    y_a_11    c4                              1
    y_a_11    c11                            -1
    y_a_11    c33                             1
    y_a_12    c4                              1
    y_a_12    c12                            -1
    y_a_12    c34                             1
    y_a_13    c5                              1
    y_a_13    c6                             -1
    y_a_13    c35                             1
    y_a_14    c5                              1
    y_a_14    c10                            -1
    y_a_14    c36                             1
    y_a_15    c5                              1
    y_a_15    c14                            -1
    y_a_15    c37                             1
    y_a_16    c6                              1
    y_a_16    c8                             -1
    y_a_16    c38                             1
    y_a_17    c6                              1
    y_a_17    c11                            -1
    y_a_17    c39                             1
    y_a_18    c6                              1
    y_a_18    c17                            -1
    y_a_18    c40                             1
    y_a_19    c6                              1
    y_a_19    c19                            -1
    y_a_19    c41                             1
    y_a_40    c6                              1
    y_a_40    c21                            -1
    y_a_40    c62                             1
    y_a_42    c6                              1
    y_a_42    c21                            -1
    y_a_42    c64                             1
    y_a_20    c7                              1
    y_a_20    c14                            -1
    y_a_20    c42                             1
    y_a_21    c7                              1
    y_a_21    c17                            -1
    y_a_21    c43                             1
    y_a_22    c7                              1
    y_a_22    c18                            -1
    y_a_22    c44                             1
    y_a_23    c7                              1
    y_a_23    c19                            -1
    y_a_23    c45                             1
    y_a_24    c8                              1
    y_a_24    c13                            -1
    y_a_24    c46                             1
    y_a_25    c8                              1
    y_a_25    c18                            -1
    y_a_25    c47                             1
    y_a_26    c9                              1
    y_a_26    c10                            -1
    y_a_26    c48                             1
    y_a_27    c9                              1
    y_a_27    c16                            -1
    y_a_27    c49                             1
    y_a_28    c9                              1
    y_a_28    c18                            -1
    y_a_28    c50                             1
    y_a_29    c9                              1
    y_a_29    c19                            -1
    y_a_29    c51                             1
    y_a_41    c9                              1
    y_a_41    c21                            -1
    y_a_41    c63                             1
    y_a_39    c11                             1
    y_a_39    c21                            -1
    y_a_39    c61                             1
    y_a_30    c12                             1
    y_a_30    c13                            -1
    y_a_30    c52                             1
    y_a_31    c12                             1
    y_a_31    c16                            -1
    y_a_31    c53                             1
    y_a_32    c13                             1
    y_a_32    c17                            -1
    y_a_32    c54                             1
    y_a_33    c13                             1
    y_a_33    c19                            -1
    y_a_33    c55                             1
    y_a_34    c14                             1
    y_a_34    c16                            -1
    y_a_34    c56                             1
    y_a_43    c20                            -1
    y_a_43    c21                             1
    y_a_43    c65                             1
    MARK0000  'MARKER'                 'INTORG'
    x_a_0     obj1                            3
    x_a_0     c22                             6
    x_a_1     obj1                            2
    x_a_1     c23                             5
    x_a_2     obj1                            1
    x_a_2     c24                            42
    x_a_3     obj1                            2
    x_a_3     c25                            16
    x_a_4     obj1                            1
    x_a_4     c26                            17
    x_a_5     obj1                            2
    x_a_5     c27                            22
    x_a_6     obj1                            2
    x_a_6     c28                             1
    x_a_7     obj1                            2
    x_a_7     c29                            41
    x_a_8     obj1                            1
    x_a_8     c30                            13
    x_a_9     obj1                            3
    x_a_9     c31                            22
    x_a_10    obj1                            1
    x_a_10    c32                            19
    x_a_11    obj1                            3
    x_a_11    c33                             8
    x_a_12    obj1                            2
    x_a_12    c34                            47
    x_a_13    obj1                            1
    x_a_13    c35                             8
    x_a_14    obj1                            3
    x_a_14    c36                            24
    x_a_15    obj1                            1
    x_a_15    c37                            18
    x_a_16    obj1                            1
    x_a_16    c38                            29
    x_a_17    obj1                            3
    x_a_17    c39                            28
    x_a_18    obj1                            3
    x_a_18    c40                            18
    x_a_19    obj1                            2
    x_a_19    c41                            15
    x_a_20    obj1                            3
    x_a_20    c42                            41
    x_a_21    obj1                            1
    x_a_21    c43                            18
    x_a_22    obj1                            2
    x_a_22    c44                             1
    x_a_23    obj1                            3
    x_a_23    c45                            30
    x_a_24    obj1                            3
    x_a_24    c46                            45
    x_a_25    obj1                            2
    x_a_25    c47                            15
    x_a_26    obj1                            1
    x_a_26    c48                            22
    x_a_27    obj1                            2
    x_a_27    c49                            40
    x_a_28    obj1                            1
    x_a_28    c50                            31
    x_a_29    obj1                            1
    x_a_29    c51                            16
    x_a_30    obj1                            3
    x_a_30    c52                            12
    x_a_31    obj1                            1
    x_a_31    c53                            39
    x_a_32    obj1                            1
    x_a_32    c54                            23
    x_a_33    obj1                            2
    x_a_33    c55                             6
    x_a_34    obj1                            2
    x_a_34    c56                            29
    x_a_35    obj1                   1000000000
    x_a_35    c57                      50000000
    x_a_36    obj1                   1000000000
    x_a_36    c58                      50000000
    x_a_37    obj1                   1000000000
    x_a_37    c59                      50000000
    x_a_38    obj1                   1000000000
    x_a_38    c60                      50000000
    x_a_39    obj1                   1000000000
    x_a_39    c61                      50000000
    x_a_40    obj1                   1000000000
    x_a_40    c62                      50000000
    x_a_41    obj1                   1000000000
    x_a_41    c63                      50000000
    x_a_42    obj1                   1000000000
    x_a_42    c64                      50000000
    x_a_43    obj1                        10000
    x_a_43    c65                         10000
    MARK0001  'MARKER'                 'INTEND'
RHS
    rhs       c1                             21
    rhs       c22                             6
    rhs       c23                             5
    rhs       c24                            42
    rhs       c25                            16
    rhs       c26                            17
    rhs       c27                            22
    rhs       c28                             1
    rhs       c29                            41
    rhs       c30                            13
    rhs       c31                            22
    rhs       c32                            19
    rhs       c33                             8
    rhs       c34                            47
    rhs       c35                             8
    rhs       c36                            24
    rhs       c37                            18
    rhs       c38                            29
    rhs       c39                            28
    rhs       c40                            18
    rhs       c41                            15
    rhs       c42                            41
    rhs       c43                            18
    rhs       c44                             1
    rhs       c45                            30
    rhs       c46                            45
    rhs       c47                            15
    rhs       c48                            22
    rhs       c49                            40
    rhs       c50                            31
    rhs       c51                            16
    rhs       c52                            12
    rhs       c53                            39
    rhs       c54                            23
    rhs       c55                             6
    rhs       c56                            29
    rhs       c57                      50000000
    rhs       c58                      50000000
    rhs       c59                      50000000
    rhs       c60                      50000000
    rhs       c61                      50000000
    rhs       c62                      50000000
    rhs       c63                      50000000
    rhs       c64                      50000000
    rhs       c65                         10000
BOUNDS
 BV bnd       x_a_0   
 BV bnd       x_a_1   
 BV bnd       x_a_2   
 BV bnd       x_a_3   
 BV bnd       x_a_4   
 BV bnd       x_a_5   
 BV bnd       x_a_6   
 BV bnd       x_a_7   
 BV bnd       x_a_8   
 BV bnd       x_a_9   
 BV bnd       x_a_10  
 BV bnd       x_a_11  
 BV bnd       x_a_12  
 BV bnd       x_a_13  
 BV bnd       x_a_14  
 BV bnd       x_a_15  
 BV bnd       x_a_16  
 BV bnd       x_a_17  
 BV bnd       x_a_18  
 BV bnd       x_a_19  
 BV bnd       x_a_20  
 BV bnd       x_a_21  
 BV bnd       x_a_22  
 BV bnd       x_a_23  
 BV bnd       x_a_24  
 BV bnd       x_a_25  
 BV bnd       x_a_26  
 BV bnd       x_a_27  
 BV bnd       x_a_28  
 BV bnd       x_a_29  
 BV bnd       x_a_30  
 BV bnd       x_a_31  
 BV bnd       x_a_32  
 BV bnd       x_a_33  
 BV bnd       x_a_34  
 BV bnd       x_a_35  
 BV bnd       x_a_36  
 BV bnd       x_a_37  
 BV bnd       x_a_38  
 BV bnd       x_a_39  
 BV bnd       x_a_40  
 BV bnd       x_a_41  
 BV bnd       x_a_42  
 BV bnd       x_a_43  
ENDATA
